problems/csplib-prob015/SchursLemma-models/noch/O2/lingeling/model_1_4-5-13-solution000001.eprime-solution
language ESSENCE' 1.0

letting boxes_PartitionOccurrence_FirstIndex be [1, 3, 5, 7, 9; int(1..5)]
letting boxes_PartitionOccurrence_NumParts be 5
letting boxes_PartitionOccurrence_PartSizes be [3, 5, 1, 3, 1; int(1..5)]
letting boxes_PartitionOccurrence_WhichPart be [1, 1, 2, 1, 3, 2, 4, 2, 5, 4, 4, 2, 2; int(1..13)]
