problems/csplib-prob015/SchursLemma-models/noch/O2/lingeling/model_1_4-5-13-solution000001.solution
language Essence 1.3

letting boxes be partition({1, 2, 4}, {3, 6, 8, 12, 13}, {5}, {7, 10, 11}, {9})
